c description: Tseitin formula on Random 4-regular graph of 37 vertices, with odd charge
c generator: CNFgen (0.9.2)
c copyright: (C) 2012-2022 Massimo Lauria <massimo.lauria@uniroma1.it>
c url: https://massimolauria.net/cnfgen
c command line: cnfgen tseitin 37
c
p cnf 74 296
1 2 3 4 0
1 2 -3 -4 0
1 -2 3 -4 0
1 -2 -3 4 0
-1 2 3 -4 0
-1 2 -3 4 0
-1 -2 3 4 0
-1 -2 -3 -4 0
5 6 7 -8 0
5 6 -7 8 0
5 -6 7 8 0
5 -6 -7 -8 0
-5 6 7 8 0
-5 6 -7 -8 0
-5 -6 7 -8 0
-5 -6 -7 8 0
9 10 11 -12 0
9 10 -11 12 0
9 -10 11 12 0
9 -10 -11 -12 0
-9 10 11 12 0
-9 10 -11 -12 0
-9 -10 11 -12 0
-9 -10 -11 12 0
13 14 15 -16 0
13 14 -15 16 0
13 -14 15 16 0
13 -14 -15 -16 0
-13 14 15 16 0
-13 14 -15 -16 0
-13 -14 15 -16 0
-13 -14 -15 16 0
17 18 19 -20 0
17 18 -19 20 0
17 -18 19 20 0
17 -18 -19 -20 0
-17 18 19 20 0
-17 18 -19 -20 0
-17 -18 19 -20 0
-17 -18 -19 20 0
5 17 21 22 0
5 17 -21 -22 0
5 -17 21 -22 0
5 -17 -21 22 0
-5 17 21 -22 0
-5 17 -21 22 0
-5 -17 21 22 0
-5 -17 -21 -22 0
23 24 25 26 0
23 24 -25 -26 0
23 -24 25 -26 0
23 -24 -25 26 0
-23 24 25 -26 0
-23 24 -25 26 0
-23 -24 25 26 0
-23 -24 -25 -26 0
13 27 28 29 0
13 27 -28 -29 0
13 -27 28 -29 0
13 -27 -28 29 0
-13 27 28 -29 0
-13 27 -28 29 0
-13 -27 28 29 0
-13 -27 -28 -29 0
30 31 32 33 0
30 31 -32 -33 0
30 -31 32 -33 0
30 -31 -32 33 0
-30 31 32 -33 0
-30 31 -32 33 0
-30 -31 32 33 0
-30 -31 -32 -33 0
34 35 36 37 0
34 35 -36 -37 0
34 -35 36 -37 0
34 -35 -36 37 0
-34 35 36 -37 0
-34 35 -36 37 0
-34 -35 36 37 0
-34 -35 -36 -37 0
34 38 39 40 0
34 38 -39 -40 0
34 -38 39 -40 0
34 -38 -39 40 0
-34 38 39 -40 0
-34 38 -39 40 0
-34 -38 39 40 0
-34 -38 -39 -40 0
23 41 42 -43 0
23 41 -42 43 0
23 -41 42 43 0
23 -41 -42 -43 0
-23 41 42 43 0
-23 41 -42 -43 0
-23 -41 42 -43 0
-23 -41 -42 43 0
14 44 45 46 0
14 44 -45 -46 0
14 -44 45 -46 0
14 -44 -45 46 0
-14 44 45 -46 0
-14 44 -45 46 0
-14 -44 45 46 0
-14 -44 -45 -46 0
15 47 48 -49 0
15 47 -48 49 0
15 -47 48 49 0
15 -47 -48 -49 0
-15 47 48 49 0
-15 47 -48 -49 0
-15 -47 48 -49 0
-15 -47 -48 49 0
24 35 50 51 0
24 35 -50 -51 0
24 -35 50 -51 0
24 -35 -50 51 0
-24 35 50 -51 0
-24 35 -50 51 0
-24 -35 50 51 0
-24 -35 -50 -51 0
9 52 53 -54 0
9 52 -53 54 0
9 -52 53 54 0
9 -52 -53 -54 0
-9 52 53 54 0
-9 52 -53 -54 0
-9 -52 53 -54 0
-9 -52 -53 54 0
30 36 41 55 0
30 36 -41 -55 0
30 -36 41 -55 0
30 -36 -41 55 0
-30 36 41 -55 0
-30 36 -41 55 0
-30 -36 41 55 0
-30 -36 -41 -55 0
27 42 47 50 0
27 42 -47 -50 0
27 -42 47 -50 0
27 -42 -47 50 0
-27 42 47 -50 0
-27 42 -47 50 0
-27 -42 47 50 0
-27 -42 -47 -50 0
18 52 56 57 0
18 52 -56 -57 0
18 -52 56 -57 0
18 -52 -56 57 0
-18 52 56 -57 0
-18 52 -56 57 0
-18 -52 56 57 0
-18 -52 -56 -57 0
21 25 58 59 0
21 25 -58 -59 0
21 -25 58 -59 0
21 -25 -58 59 0
-21 25 58 -59 0
-21 25 -58 59 0
-21 -25 58 59 0
-21 -25 -58 -59 0
31 56 58 -60 0
31 56 -58 60 0
31 -56 58 60 0
31 -56 -58 -60 0
-31 56 58 60 0
-31 56 -58 -60 0
-31 -56 58 -60 0
-31 -56 -58 60 0
6 10 28 -61 0
6 10 -28 61 0
6 -10 28 61 0
6 -10 -28 -61 0
-6 10 28 61 0
-6 10 -28 -61 0
-6 -10 28 -61 0
-6 -10 -28 61 0
1 44 55 62 0
1 44 -55 -62 0
1 -44 55 -62 0
1 -44 -55 62 0
-1 44 55 -62 0
-1 44 -55 62 0
-1 -44 55 62 0
-1 -44 -55 -62 0
11 38 63 64 0
11 38 -63 -64 0
11 -38 63 -64 0
11 -38 -63 64 0
-11 38 63 -64 0
-11 38 -63 64 0
-11 -38 63 64 0
-11 -38 -63 -64 0
19 39 45 -48 0
19 39 -45 48 0
19 -39 45 48 0
19 -39 -45 -48 0
-19 39 45 48 0
-19 39 -45 -48 0
-19 -39 45 -48 0
-19 -39 -45 48 0
16 49 57 -65 0
16 49 -57 65 0
16 -49 57 65 0
16 -49 -57 -65 0
-16 49 57 65 0
-16 49 -57 -65 0
-16 -49 57 -65 0
-16 -49 -57 65 0
37 59 66 -67 0
37 59 -66 67 0
37 -59 66 67 0
37 -59 -66 -67 0
-37 59 66 67 0
-37 59 -66 -67 0
-37 -59 66 -67 0
-37 -59 -66 67 0
2 32 62 -68 0
2 32 -62 68 0
2 -32 62 68 0
2 -32 -62 -68 0
-2 32 62 68 0
-2 32 -62 -68 0
-2 -32 62 -68 0
-2 -32 -62 68 0
7 63 69 70 0
7 63 -69 -70 0
7 -63 69 -70 0
7 -63 -69 70 0
-7 63 69 -70 0
-7 63 -69 70 0
-7 -63 69 70 0
-7 -63 -69 -70 0
29 60 69 71 0
29 60 -69 -71 0
29 -60 69 -71 0
29 -60 -69 71 0
-29 60 69 -71 0
-29 60 -69 71 0
-29 -60 69 71 0
-29 -60 -69 -71 0
8 46 51 53 0
8 46 -51 -53 0
8 -46 51 -53 0
8 -46 -51 53 0
-8 46 51 -53 0
-8 46 -51 53 0
-8 -46 51 53 0
-8 -46 -51 -53 0
54 68 70 72 0
54 68 -70 -72 0
54 -68 70 -72 0
54 -68 -70 72 0
-54 68 70 -72 0
-54 68 -70 72 0
-54 -68 70 72 0
-54 -68 -70 -72 0
3 64 72 -73 0
3 64 -72 73 0
3 -64 72 73 0
3 -64 -72 -73 0
-3 64 72 73 0
-3 64 -72 -73 0
-3 -64 72 -73 0
-3 -64 -72 73 0
12 26 40 66 0
12 26 -40 -66 0
12 -26 40 -66 0
12 -26 -40 66 0
-12 26 40 -66 0
-12 26 -40 66 0
-12 -26 40 66 0
-12 -26 -40 -66 0
33 67 71 73 0
33 67 -71 -73 0
33 -67 71 -73 0
33 -67 -71 73 0
-33 67 71 -73 0
-33 67 -71 73 0
-33 -67 71 73 0
-33 -67 -71 -73 0
4 61 65 74 0
4 61 -65 -74 0
4 -61 65 -74 0
4 -61 -65 74 0
-4 61 65 -74 0
-4 61 -65 74 0
-4 -61 65 74 0
-4 -61 -65 -74 0
20 22 43 74 0
20 22 -43 -74 0
20 -22 43 -74 0
20 -22 -43 74 0
-20 22 43 -74 0
-20 22 -43 74 0
-20 -22 43 74 0
-20 -22 -43 -74 0
